experiments/benchmarks/random/5_3_2.in
13 7
1 4 0 0 -3 0 7
1 0 0 0 5 3 -5
1 0 0 0 -7 0 -5
1 1 0 0 0 0 8
1 0 1 0 0 0 8
1 0 0 1 0 0 8
1 0 0 0 1 0 8
1 0 0 0 0 1 8
1 -1 0 0 0 0 7
1 0 -1 0 0 0 7
1 0 0 -1 0 0 7
1 0 0 0 -1 0 7
1 0 0 0 0 -1 7
